p cnf 75 420
5 0
-1 0
10 0
-6 0
15 0
-11 0
20 0
-16 0
25 0
-21 0
30 0
-26 0
35 0
-31 0
40 0
-36 0
45 0
-41 0
50 0
-46 0
55 0
-51 0
60 0
-56 0
65 0
-61 0
70 0
-66 0
75 0
-71 0
-1 2 0
-2 3 0
-3 4 0
-4 5 0
-6 7 0
-7 8 0
-8 9 0
-9 10 0
-11 12 0
-12 13 0
-13 14 0
-14 15 0
-16 17 0
-17 18 0
-18 19 0
-19 20 0
-21 22 0
-22 23 0
-23 24 0
-24 25 0
-26 27 0
-27 28 0
-28 29 0
-29 30 0
-31 32 0
-32 33 0
-33 34 0
-34 35 0
-36 37 0
-37 38 0
-38 39 0
-39 40 0
-41 42 0
-42 43 0
-43 44 0
-44 45 0
-46 47 0
-47 48 0
-48 49 0
-49 50 0
-51 52 0
-52 53 0
-53 54 0
-54 55 0
-56 57 0
-57 58 0
-58 59 0
-59 60 0
-61 62 0
-62 63 0
-63 64 0
-64 65 0
-66 67 0
-67 68 0
-68 69 0
-69 70 0
-71 72 0
-72 73 0
-73 74 0
-74 75 0
-6 -11 31 0
-6 -31 11 0
-11 -31 6 0
-7 -12 32 0
-7 -32 12 0
-12 -32 7 0
-8 -13 33 0
-8 -33 13 0
-13 -33 8 0
-9 -14 34 0
-9 -34 14 0
-14 -34 9 0
-10 -15 35 0
-10 -35 15 0
-15 -35 10 0
-6 -16 36 0
-6 -36 16 0
-16 -36 6 0
-7 -17 37 0
-7 -37 17 0
-17 -37 7 0
-8 -18 38 0
-8 -38 18 0
-18 -38 8 0
-9 -19 39 0
-9 -39 19 0
-19 -39 9 0
-10 -20 40 0
-10 -40 20 0
-20 -40 10 0
-6 -21 41 0
-6 -41 21 0
-21 -41 6 0
-7 -22 42 0
-7 -42 22 0
-22 -42 7 0
-8 -23 43 0
-8 -43 23 0
-23 -43 8 0
-9 -24 44 0
-9 -44 24 0
-24 -44 9 0
-10 -25 45 0
-10 -45 25 0
-25 -45 10 0
-11 -16 51 0
-11 -51 16 0
-16 -51 11 0
-12 -17 52 0
-12 -52 17 0
-17 -52 12 0
-13 -18 53 0
-13 -53 18 0
-18 -53 13 0
-14 -19 54 0
-14 -54 19 0
-19 -54 14 0
-15 -20 55 0
-15 -55 20 0
-20 -55 15 0
-11 -21 56 0
-11 -56 21 0
-21 -56 11 0
-12 -22 57 0
-12 -57 22 0
-22 -57 12 0
-13 -23 58 0
-13 -58 23 0
-23 -58 13 0
-14 -24 59 0
-14 -59 24 0
-24 -59 14 0
-15 -25 60 0
-15 -60 25 0
-25 -60 15 0
-16 -21 66 0
-16 -66 21 0
-21 -66 16 0
-17 -22 67 0
-17 -67 22 0
-22 -67 17 0
-18 -23 68 0
-18 -68 23 0
-23 -68 18 0
-19 -24 69 0
-19 -69 24 0
-24 -69 19 0
-20 -25 70 0
-20 -70 25 0
-25 -70 20 0
-31 -36 51 0
-31 -51 36 0
-36 -51 31 0
-32 -37 52 0
-32 -52 37 0
-37 -52 32 0
-33 -38 53 0
-33 -53 38 0
-38 -53 33 0
-34 -39 54 0
-34 -54 39 0
-39 -54 34 0
-35 -40 55 0
-35 -55 40 0
-40 -55 35 0
-31 -41 56 0
-31 -56 41 0
-41 -56 31 0
-32 -42 57 0
-32 -57 42 0
-42 -57 32 0
-33 -43 58 0
-33 -58 43 0
-43 -58 33 0
-34 -44 59 0
-34 -59 44 0
-44 -59 34 0
-35 -45 60 0
-35 -60 45 0
-45 -60 35 0
-36 -41 66 0
-36 -66 41 0
-41 -66 36 0
-37 -42 67 0
-37 -67 42 0
-42 -67 37 0
-38 -43 68 0
-38 -68 43 0
-43 -68 38 0
-39 -44 69 0
-39 -69 44 0
-44 -69 39 0
-40 -45 70 0
-40 -70 45 0
-45 -70 40 0
-51 -56 66 0
-51 -66 56 0
-56 -66 51 0
-52 -57 67 0
-52 -67 57 0
-57 -67 52 0
-53 -58 68 0
-53 -68 58 0
-58 -68 53 0
-54 -59 69 0
-54 -69 59 0
-59 -69 54 0
-55 -60 70 0
-55 -70 60 0
-60 -70 55 0
-6 1 0
-6 26 0
-7 2 0
-7 27 0
-8 3 0
-8 28 0
-9 4 0
-9 29 0
-10 5 0
-10 30 0
-11 1 0
-11 46 0
-12 2 0
-12 47 0
-13 3 0
-13 48 0
-14 4 0
-14 49 0
-15 5 0
-15 50 0
-16 1 0
-16 61 0
-17 2 0
-17 62 0
-18 3 0
-18 63 0
-19 4 0
-19 64 0
-20 5 0
-20 65 0
-21 1 0
-21 71 0
-22 2 0
-22 72 0
-23 3 0
-23 73 0
-24 4 0
-24 74 0
-25 5 0
-25 75 0
-31 26 0
-31 46 0
-32 27 0
-32 47 0
-33 28 0
-33 48 0
-34 29 0
-34 49 0
-35 30 0
-35 50 0
-36 26 0
-36 61 0
-37 27 0
-37 62 0
-38 28 0
-38 63 0
-39 29 0
-39 64 0
-40 30 0
-40 65 0
-41 26 0
-41 71 0
-42 27 0
-42 72 0
-43 28 0
-43 73 0
-44 29 0
-44 74 0
-45 30 0
-45 75 0
-51 46 0
-51 61 0
-52 47 0
-52 62 0
-53 48 0
-53 63 0
-54 49 0
-54 64 0
-55 50 0
-55 65 0
-56 46 0
-56 71 0
-57 47 0
-57 72 0
-58 48 0
-58 73 0
-59 49 0
-59 74 0
-60 50 0
-60 75 0
-66 61 0
-66 71 0
-67 62 0
-67 72 0
-68 63 0
-68 73 0
-69 64 0
-69 74 0
-70 65 0
-70 75 0
-7 1 26 0
-8 2 27 0
-9 3 28 0
-10 4 29 0
-12 1 46 0
-13 2 47 0
-14 3 48 0
-15 4 49 0
-17 1 61 0
-18 2 62 0
-19 3 63 0
-20 4 64 0
-22 1 71 0
-23 2 72 0
-24 3 73 0
-25 4 74 0
-32 26 46 0
-33 27 47 0
-34 28 48 0
-35 29 49 0
-37 26 61 0
-38 27 62 0
-39 28 63 0
-40 29 64 0
-42 26 71 0
-43 27 72 0
-44 28 73 0
-45 29 74 0
-52 46 61 0
-53 47 62 0
-54 48 63 0
-55 49 64 0
-57 46 71 0
-58 47 72 0
-59 48 73 0
-60 49 74 0
-67 61 71 0
-68 62 72 0
-69 63 73 0
-70 64 74 0
-2 1 -27 7 0
-2 26 -27 7 0
-3 2 -28 8 0
-3 27 -28 8 0
-4 3 -29 9 0
-4 28 -29 9 0
-5 4 -30 10 0
-5 29 -30 10 0
-2 1 -47 12 0
-2 46 -47 12 0
-3 2 -48 13 0
-3 47 -48 13 0
-4 3 -49 14 0
-4 48 -49 14 0
-5 4 -50 15 0
-5 49 -50 15 0
-27 26 -62 37 0
-27 61 -62 37 0
-28 27 -63 38 0
-28 62 -63 38 0
-29 28 -64 39 0
-29 63 -64 39 0
-30 29 -65 40 0
-30 64 -65 40 0
-27 26 -47 32 0
-27 46 -47 32 0
-28 27 -48 33 0
-28 47 -48 33 0
-29 28 -49 34 0
-29 48 -49 34 0
-30 29 -50 35 0
-30 49 -50 35 0
-47 46 -72 57 0
-47 71 -72 57 0
-48 47 -73 58 0
-48 72 -73 58 0
-49 48 -74 59 0
-49 73 -74 59 0
-50 49 -75 60 0
-50 74 -75 60 0
